width = 15;

n_circuits = 25;

circuit_x = array1d(1..25, [3, 3, 2, 2, 3, 3, 2, 2, 4, 4, 5, 2, 2, 3, 3, 4, 4, 2,
    2, 5, 5, 4, 4, 2, 2]);

circuit_y = array1d(1..25, [11, 13, 9, 7, 9, 7, 11, 13, 11, 13, 3, 11, 2, 11, 2,
    5, 6, 12, 1, 3, 13, 12, 1, 5, 6]);

opt_height = 40;

max_y = 13;

